10
5
5
-10 -7 3 -0 -6 
22 186 -147 -115 -51 
-8 -5 -10 6 -6 
-146 125 162 1 -36 
2 0 11 0 0 
0 0 0 18 4 
0 11 0 0 0 
8 3 0 7 0 
0 0 0 4 0 
17 0 0 5 4 
0 0 0 20 0 
0 0 0 0 1 
0 0 0 0 16 
0 0 0 0 0 
6 0 0 0 0 
0 19 0 0 0 
0 0 5 0 0 
0 0 0 6 0 
0 0 0 0 18 
0 0 0 0 0 
0 0 0 0 0 
0 0 0 0 0 
0 0 0 0 0 
1 1 1 1 1 
70 71 90 91 59 75 98 87 74 1 
1 1 1 1 1 1 1 1 1 1 
